COLUMNS

passenger_count
pickup_ID
dropoff_ID
request_time_sec
pickup_district
dropoff_district
LDuals
IDuals
vehicle_ID
pick_position
drop_position

REQUESTS_INFO
1      621       826       28994     280       291       135       135       9         1         4         
4      413       672       28957     52        189       221       221       42        1         2         
3      1087      497       28944     291       999       211       211       48        1         2         
1      296       134       29007     277       9         143       143       108       1         3         
1      1182      1141      28999     84        84        103       103       116       1         2         
1      633       904       28951     189       290       177       177       122       1         3         
1      526       474       28995     52        52        122       122       125       1         4         
2      269       33        29008     127       98        118       118       144       1         3         
1      969       722       28986     290       290       132       132       182       1         3         
1      1148      1005      29008     291       50        133       133       215       1         3         
2      688       628       28976     131       189       198       198       227       1         2         
1      257       350       28984     87        127       211       211       236       1         2         
2      863       905       28932     290       290       222       222       265       1         2         
1      317       116       29008     277       9         151       151       319       1         3         
1      388       369       28941     299       52        221       221       390       1         2         
3      1087      788       28993     291       290       162       162       399       1         3         
3      645       536       28986     280       189       172       172       409       1         2         
1      325       292       28994     299       87        165       165       470       1         2         
1      416       694       28986     100       189       117       117       505       1         3         
1      983       667       28969     291       131       172       172       604       1         2         
2      740       728       28993     50        290       140       140       647       1         4         
3      632       697       28977     189       189       139       139       677       1         3         
1      641       760       28991     131       291       164       164       729       1         3         
1      778       783       28982     131       50        143       143       756       1         3         
3      666       396       28995     131       119       197       197       756       2         4         
4      440       419       28885     168       168       245       245       765       1         2         
1      328       439       28989     299       189       207       207       771       1         2         
1      829       771       28988     50        290       152       152       794       1         2         
1      307       670       28987     127       280       145       145       823       1         2         
1      311       350       29006     87        127       139       139       844       1         2         
1      839       842       28980     290       290       163       163       862       1         2         
1      47        152       28981     98        9         96        96        869       1         2         
1      435       1054      28965     52        84        186       186       897       1         3         
1      413       749       29004     52        290       94        94        899       1         3         
1      1069      649       28982     291       189       169       169       922       1         3         
3      1087      788       28993     291       290       162       162       927       1         2         
1      771       727       29005     290       290       107       107       929       1         2         
1      872       858       29004     291       290       114       114       933       1         3         
1      771       741       28953     290       50        159       159       952       1         4         
3      1022      673       29004     291       189       151       151       958       1         2         
3      394       358       28898     100       168       266       266       961       1         3         
2      1031      696       28985     50        189       193       193       991       1         3         
1      795       968       28977     290       290       151       151       1026      1         2         
2      272       578       28957     127       189       266       266       1060      1         2         
3      906       969       28933     290       290       252       252       1287      1         2         
2      717       1224      28996     189       192       125       125       1308      1         2         
2      366       44        28853     299       98        310       310       1319      1         2         
1      1053      789       29004     84        290       177       177       1370      1         2         
1      689       674       28992     131       189       149       149       1447      1         4         
2      644       507       28974     131       189       214       214       1718      1         2         
1      923       970       29004     290       290       125       125       1834      1         2         
1      274       269       29003     87        127       136       136       1845      1         2         
2      1022      673       29004     291       189       141       141       1858      1         4         
1      904       939       28991     290       291       149       149       1873      1         3         
2      1053      1011      29004     84        84        170       170       1918      1         2         
3      549       648       28983     52        189       193       193       1928      1         2         
2      371       329       28999     52        127       123       123       1943      1         2         
1      970       904       28989     290       290       150       150       1985      1         2         
1      850       714       28997     291       131       149       149       1987      1         2         
1      395       333       29010     100       119       0         0         0         0         0         
1      395       532       29010     100       199       0         0         0         0         0         
1      352       136       29010     119       286       0         0         0         0         0         
1      904       694       29010     290       189       0         0         0         0         0         
1      377       400       29010     168       168       0         0         0         0         0         
1      1284      1217      29011     129       84        0         0         0         0         0         
1      780       1088      29011     291       291       0         0         0         0         0         
1      906       554       29011     290       189       0         0         0         0         0         
1      527       536       29011     52        189       0         0         0         0         0         
2      945       1045      29011     50        291       0         0         0         0         0         
2      827       602       29011     291       189       0         0         0         0         0         
1      439       629       29012     189       189       0         0         0         0         0         
1      345       737       29013     299       189       0         0         0         0         0         
1      509       627       29013     199       189       0         0         0         0         0         
1      353       374       29013     119       119       0         0         0         0         0         
1      433       544       29013     52        52        0         0         0         0         0         
1      252       378       29013     206       168       0         0         0         0         0         
1      256       580       29013     87        189       0         0         0         0         0         
2      557       584       29014     189       189       0         0         0         0         0         
1      506       737       29014     189       189       0         0         0         0         0         
2      746       551       29014     290       189       0         0         0         0         0         
2      1199      1169      29015     84        291       0         0         0         0         0         
1      772       768       29015     290       290       0         0         0         0         0         
1      1012      769       29015     84        290       0         0         0         0         0         
1      398       433       29015     168       52        0         0         0         0         0         
1      742       501       29016     290       52        0         0         0         0         0         
1      902       627       29016     50        189       0         0         0         0         0         
1      78        154       29016     9         286       0         0         0         0         0         
2      630       439       29016     189       189       0         0         0         0         0         
1      907       862       29017     290       290       0         0         0         0         0         
1      621       670       29017     280       280       0         0         0         0         0         
1      348       350       29017     299       127       0         0         0         0         0         
3      47        235       29017     98        87        0         0         0         0         0         
3      47        235       29017     98        87        0         0         0         0         0         
1      579       650       29018     189       189       0         0         0         0         0         
1      1151      1106      29018     291       291       0         0         0         0         0         
1      237       157       29018     87        54        0         0         0         0         0         
1      837       1011      29018     290       84        0         0         0         0         0         
2      712       549       29018     131       52        0         0         0         0         0         
3      712       549       29018     131       52        0         0         0         0         0         
1      309       604       29019     127       189       0         0         0         0         0         
3      373       604       29019     119       189       0         0         0         0         0         
1      1005      416       29019     50        100       0         0         0         0         0         
1      173       134       29019     286       9         0         0         0         0         0         
1      557       138       29019     189       57        0         0         0         0         0         
3      99        600       29019     286       280       0         0         0         0         0         
3      99        600       29019     286       280       0         0         0         0         0         
2      1023      415       29020     291       100       0         0         0         0         0         
1      397       604       29020     168       189       0         0         0         0         0         
1      269       392       29020     127       52        0         0         0         0         0         
1      903       811       29020     290       290       0         0         0         0         0         
1      35        116       29021     98        9         0         0         0         0         0         
1      1011      1161      29021     84        84        0         0         0         0         0         
1      527       484       29021     52        189       0         0         0         0         0         
1      725       350       29021     290       127       0         0         0         0         0         
2      749       859       29022     290       290       0         0         0         0         0         
1      1189      1087      29022     192       291       0         0         0         0         0         
1      646       1227      29022     280       192       0         0         0         0         0         
3      946       861       29022     290       290       0         0         0         0         0         
3      991       743       29022     290       290       0         0         0         0         0         
3      991       743       29022     290       290       0         0         0         0         0         
3      946       861       29022     290       290       0         0         0         0         0         
3      505       621       29022     52        280       0         0         0         0         0         
3      505       621       29022     52        280       0         0         0         0         0         
1      726       673       29023     290       189       0         0         0         0         0         
1      1180      137       29023     84        286       0         0         0         0         0         
1      188       522       29023     286       52        0         0         0         0         0         
1      621       603       29024     280       189       0         0         0         0         0         
1      365       416       29024     299       100       0         0         0         0         0         
2      598       604       29024     189       189       0         0         0         0         0         
2      1001      824       29024     291       291       0         0         0         0         0         
3      621       674       29024     280       189       0         0         0         0         0         
3      621       674       29024     280       189       0         0         0         0         0         
3      1001      824       29024     291       291       0         0         0         0         0         
2      485       371       29025     189       52        0         0         0         0         0         
3      485       371       29025     189       52        0         0         0         0         0         
1      598       697       29025     189       189       0         0         0         0         0         
1      345       871       29025     299       291       0         0         0         0         0         
2      511       583       29025     199       189       0         0         0         0         0         
1      256       269       29025     87        127       0         0         0         0         0         
1      526       673       29026     52        189       0         0         0         0         0         
3      523       33        29026     52        98        0         0         0         0         0         
3      1308      1312      29026     129       999       0         0         0         0         0         
1      711       671       29026     131       280       0         0         0         0         0         
2      523       33        29026     52        98        0         0         0         0         0         
3      1308      1312      29026     129       999       0         0         0         0         0         
1      366       286       29026     299       299       0         0         0         0         0         
3      604       669       29027     189       280       0         0         0         0         0         
1      768       432       29027     290       52        0         0         0         0         0         
1      133       48        29027     9         98        0         0         0         0         0         
1      512       599       29027     199       280       0         0         0         0         0         
2      575       409       29027     189       52        0         0         0         0         0         
3      604       669       29027     189       280       0         0         0         0         0         
1      441       727       29027     168       290       0         0         0         0         0         
1      970       837       29028     290       290       0         0         0         0         0         
1      100       189       29028     57        286       0         0         0         0         0         
2      436       601       29028     100       189       0         0         0         0         0         
1      691       711       29029     131       131       0         0         0         0         0         
1      132       439       29029     999       189       0         0         0         0         0         
1      655       772       29029     189       290       0         0         0         0         0         
1      701       117       29030     290       286       0         0         0         0         0         
1      499       651       29030     52        189       0         0         0         0         0         
1      598       737       29031     189       189       0         0         0         0         0         
1      1446      1579      29031     129       296       0         0         0         0         0         
1      556       35        29031     199       98        0         0         0         0         0         
1      153       622       29031     286       280       0         0         0         0         0         
1      745       969       29031     290       290       0         0         0         0         0         
1      371       653       29031     52        189       0         0         0         0         0         
1      581       671       29032     189       280       0         0         0         0         0         
1      66        535       29032     98        189       0         0         0         0         0         
3      330       718       29032     127       189       0         0         0         0         0         
1      415       497       29032     100       999       0         0         0         0         0         
1      723       839       29033     290       290       0         0         0         0         0         
1      802       1208      29033     291       192       0         0         0         0         0         
1      646       554       29034     280       189       0         0         0         0         0         
1      409       209       29034     52        266       0         0         0         0         0         
1      603       718       29034     189       189       0         0         0         0         0         
1      524       306       29034     52        299       0         0         0         0         0         
1      1319      1195      29034     129       129       0         0         0         0         0         
1      479       1024      29034     52        291       0         0         0         0         0         
2      1048      738       29035     291       189       0         0         0         0         0         
3      718       859       29035     189       290       0         0         0         0         0         
2      718       859       29035     189       290       0         0         0         0         0         
1      744       896       29035     290       291       0         0         0         0         0         
1      372       739       29035     119       189       0         0         0         0         0         
1      687       430       29035     131       52        0         0         0         0         0         
1      1106      718       29035     291       189       0         0         0         0         0         
1      679       794       29036     290       290       0         0         0         0         0         
1      888       557       29036     290       189       0         0         0         0         0         
1      758       646       29036     131       280       0         0         0         0         0         
1      627       662       29036     189       131       0         0         0         0         0         
2      255       182       29037     87        178       0         0         0         0         0         
1      1371      905       29037     129       290       0         0         0         0         0         
1      179       526       29037     178       52        0         0         0         0         0         
1      692       734       29037     280       131       0         0         0         0         0         
1      523       715       29037     52        131       0         0         0         0         0         
1      483       605       29037     189       189       0         0         0         0         0         
1      829       670       29037     50        280       0         0         0         0         0         
1      307       413       29038     127       52        0         0         0         0         0         
1      442       531       29038     168       189       0         0         0         0         0         
2      791       842       29038     290       290       0         0         0         0         0         
2      945       924       29038     50        290       0         0         0         0         0         
1      837       906       29039     290       290       0         0         0         0         0         
1      173       647       29039     286       280       0         0         0         0         0         
1      1308      1287      29039     129       129       0         0         0         0         0         
